proyfinal/src/viki/013/andrea/andrea-localstore/experimentInOfficeAgust.take6/worker_9/ea3baf17-076a-4531-89a5-4cd316436687.als.cnf.out
Reading from standard input... Use '--help' for help.
============================[ Problem Statistics ]=============================
|                                                                             |
|  Number of variables:         87638                                         |
|  Number of clauses:          161767                                         |
|  Parse time:                   0.04 s                                       |
|                                                                             |
============================[ Search Statistics ]==============================
| Conflicts |          ORIGINAL         |          LEARNT          | Progress |
|           |    Vars  Clauses Literals |    Limit  Clauses Lit/Cl |          |
===============================================================================
|       100 |   62676   106212   265489 |    38944      100      9 | 28.483 % |
|       250 |   62641   106144   265328 |    42838      248     12 | 28.523 % |
|       475 |   62641   106070   265157 |    47122      472     31 | 28.523 % |
|       812 |   62641   106070   265157 |    51834      809     48 | 28.523 % |
|      1318 |   62641   106070   265157 |    57018     1315     68 | 28.523 % |
|      2077 |   62640   106026   265067 |    62720     2073     61 | 28.524 % |
|      3216 |   62640   106026   265067 |    68992     3212     65 | 28.524 % |
|      4924 |   62640   106026   265067 |    75891     4920     67 | 28.524 % |
|      7486 |   62640   106026   265067 |    83480     7482     69 | 28.524 % |
===============================================================================
restarts              : 37
conflicts             : 8695           (6156 /sec)
decisions             : 30248          (0.00 % random) (21415 /sec)
propagations          : 15013773       (10629574 /sec)
conflict literals     : 620353         (57.09 % deleted)
Memory used           : 23.46 MB
CPU time              : 1.41245 s

UNSATISFIABLE
